20	5
4 52	1 53	3 48	0 57	2 49
4 50	3 50	1 45	2 60	0 43
4 49	2 47	1 50	0 58	3 52
4 44	3 55	1 48	2 43	0 55
4 53	0 55	3 47	1 49	2 48
1 55	0 48	2 49	4 45	3 51
1 52	4 47	0 43	2 51	3 46
2 52	3 51	4 50	1 53	0 56
0 57	4 46	1 51	2 49	3 52
1 55	2 54	4 50	3 50	0 55
0 44	1 50	4 53	2 52	3 39
2 52	1 51	3 50	0 51	4 46
2 50	4 46	1 44	0 47	3 57
4 54	1 50	2 54	0 49	3 55
2 49	1 46	3 53	4 55	0 53
0 47	4 45	3 47	1 52	2 64
4 49	0 49	3 50	2 50	1 53
4 57	3 58	2 42	0 57	1 53
1 51	4 50	3 52	2 47	0 46
2 41	3 53	4 53	0 51	1 45
